0 3 6 2 8 9 7 6 1 4
9 0 5 2 4 2 5 3 1 7
7 3 0 4 2 9 7 6 4 7
5 3 9 0 2 3 1 8 7 9
9 4 2 6 0 2 5 3 6 5
2 6 3 4 9 0 4 1 2 4
7 4 3 8 6 7 0 4 1 9
5 2 9 8 6 1 6 0 5 2
7 3 6 5 1 7 8 9 0 3
5 2 7 3 1 8 9 7 3 0